decision_x1=[0,7];
decision_x2=[0,7];
decision_x3=[0,7];
decision_x4=[0,7];
decision_x5=[0,7];
decision_x6=[0,7];
decision_x7=[0,7];
decision_x8=[0,7];
decision_x9=[0,7];
decision_x10=[0,7];
decision_x11=[0,7];
decision_x12=[0,7];
decision_x13=[0,7];
decision_x14=[0,7];
decision_x15=[0,7];
decision_x16=[0,7];
decision_x17=[0,7];
decision_x18=[0,7];
decision_x19=[0,7];
decision_x20=[0,7];
random_y1=[0,7];
random_y2=[0,7];
random_y3=[0,7];
random_y4=[0,7];
random_y5=[0,7];
random_y6=[0,7];
random_y7=[0,7];
random_y8=[0,7];
random_y9=[0,7];
constraint_x2_x1=[
0,0,7.3|
0,1,0.68|
0,2,0.14|
0,3,6.6|
0,4,7.4|
0,5,5.4|
0,6,2.1|
0,7,1.8|
1,0,0.39|
1,1,3.2|
1,2,5.7|
1,3,8.5|
1,4,3.5|
1,5,4.6|
1,6,2.8|
1,7,3.3|
2,0,3.4|
2,1,8|
2,2,9.3|
2,3,0.75|
2,4,2.6|
2,5,8.1|
2,6,5.1|
2,7,1.8|
3,0,4|
3,1,7.1|
3,2,9.7|
3,3,8.3|
3,4,3.8|
3,5,3.8|
3,6,0.3|
3,7,6.9|
4,0,3.9|
4,1,4.7|
4,2,0.13|
4,3,8.7|
4,4,6.5|
4,5,4.6|
4,6,9.1|
4,7,3.4|
5,0,4.9|
5,1,7.7|
5,2,5|
5,3,9.2|
5,4,3.7|
5,5,0.34|
5,6,8.1|
5,7,6.8|
6,0,1.2|
6,1,0.096|
6,2,6.1|
6,3,7.8|
6,4,5.5|
6,5,3.1|
6,6,3.6|
6,7,9.9|
7,0,4.4|
7,1,2.7|
7,2,7.9|
7,3,5.8|
7,4,5.6|
7,5,8.6|
7,6,7.1|
7,7,4.9|
];
constraint_x3_x2=[
0,0,7.2|
0,1,7.7|
0,2,3.7|
0,3,2.4|
0,4,5.5|
0,5,5.6|
0,6,5.1|
0,7,9.6|
1,0,3.6|
1,1,7.4|
1,2,7.5|
1,3,0.62|
1,4,2.9|
1,5,4.7|
1,6,8.7|
1,7,4.3|
2,0,4.3|
2,1,1.9|
2,2,4.6|
2,3,4.6|
2,4,8.8|
2,5,1.1|
2,6,4.2|
2,7,3.5|
3,0,4.2|
3,1,2.1|
3,2,6.4|
3,3,6|
3,4,2|
3,5,2|
3,6,0.79|
3,7,4.5|
4,0,9.8|
4,1,0.77|
4,2,7|
4,3,6.1|
4,4,7.2|
4,5,1.3|
4,6,2.9|
4,7,2|
5,0,1.5|
5,1,1.7|
5,2,4.7|
5,3,5.4|
5,4,0.06|
5,5,4.7|
5,6,5.1|
5,7,0.43|
6,0,3.1|
6,1,3.1|
6,2,0.53|
6,3,5.4|
6,4,4.4|
6,5,4.5|
6,6,1.6|
6,7,6|
7,0,5.8|
7,1,2.6|
7,2,3.2|
7,3,0.73|
7,4,3.4|
7,5,5.7|
7,6,7.4|
7,7,9.8|
];
constraint_x4_x3=[
0,0,3.8|
0,1,2.3|
0,2,9.4|
0,3,3.8|
0,4,7|
0,5,2|
0,6,4.7|
0,7,6.5|
1,0,6|
1,1,9.7|
1,2,6|
1,3,1.7|
1,4,5.7|
1,5,2.2|
1,6,5.3|
1,7,4.1|
2,0,6.5|
2,1,5.4|
2,2,5.4|
2,3,8|
2,4,3.8|
2,5,4.6|
2,6,6.8|
2,7,9.1|
3,0,2.8|
3,1,5.3|
3,2,2.2|
3,3,2|
3,4,0.95|
3,5,2.1|
3,6,3|
3,7,2.2|
4,0,9|
4,1,8.8|
4,2,9.2|
4,3,7.9|
4,4,9.8|
4,5,6|
4,6,2.2|
4,7,3.4|
5,0,4.5|
5,1,4.8|
5,2,2.4|
5,3,1.9|
5,4,2.6|
5,5,5.7|
5,6,8.9|
5,7,0.35|
6,0,0.96|
6,1,5|
6,2,5.5|
6,3,7.2|
6,4,7.4|
6,5,9.2|
6,6,0.16|
6,7,8.4|
7,0,4.7|
7,1,5.5|
7,2,7.5|
7,3,3.3|
7,4,2.4|
7,5,2|
7,6,9.1|
7,7,3.2|
];
constraint_x5_x1=[
0,0,2.1|
0,1,3.2|
0,2,6.2|
0,3,6.2|
0,4,0.072|
0,5,3.4|
0,6,3.5|
0,7,5.8|
1,0,6.1|
1,1,4.3|
1,2,5.1|
1,3,5.8|
1,4,2.3|
1,5,8.9|
1,6,2.3|
1,7,5.1|
2,0,3.8|
2,1,5.6|
2,2,6.8|
2,3,5.5|
2,4,1.1|
2,5,6.2|
2,6,4.4|
2,7,0.091|
3,0,8.7|
3,1,8.3|
3,2,4.7|
3,3,0.98|
3,4,1|
3,5,9.7|
3,6,8.9|
3,7,7.8|
4,0,5.9|
4,1,1.1|
4,2,6.3|
4,3,7.8|
4,4,1.2|
4,5,4.5|
4,6,4.6|
4,7,7.1|
5,0,4.3|
5,1,7.2|
5,2,1.4|
5,3,6.3|
5,4,4.4|
5,5,1.8|
5,6,5.6|
5,7,7.3|
6,0,5.5|
6,1,0.29|
6,2,2.2|
6,3,2.3|
6,4,0.68|
6,5,1.3|
6,6,0.093|
6,7,9.5|
7,0,8.7|
7,1,2.3|
7,2,3.4|
7,3,1.3|
7,4,4.7|
7,5,3.3|
7,6,6.5|
7,7,8.9|
];
constraint_x6_x2=[
0,0,5.6|
0,1,7.4|
0,2,4.9|
0,3,5.2|
0,4,4.1|
0,5,9.9|
0,6,0.078|
0,7,2.2|
1,0,4.2|
1,1,2.9|
1,2,8.6|
1,3,0.39|
1,4,1.6|
1,5,0.049|
1,6,4.7|
1,7,6.8|
2,0,3.4|
2,1,9.9|
2,2,2.1|
2,3,2|
2,4,8.9|
2,5,0.71|
2,6,6.5|
2,7,8.4|
3,0,2.8|
3,1,8.8|
3,2,1.4|
3,3,5.8|
3,4,5.2|
3,5,4.7|
3,6,7.2|
3,7,6.5|
4,0,9.2|
4,1,0.28|
4,2,6.6|
4,3,5|
4,4,8.4|
4,5,1.4|
4,6,4.2|
4,7,7.8|
5,0,3.2|
5,1,2|
5,2,5.2|
5,3,1.5|
5,4,4.3|
5,5,4|
5,6,4.5|
5,7,8.1|
6,0,7|
6,1,7.7|
6,2,0.96|
6,3,0.25|
6,4,1.5|
6,5,4.2|
6,6,7.9|
6,7,3.8|
7,0,2.2|
7,1,2.5|
7,2,4.1|
7,3,2.9|
7,4,6.3|
7,5,7.7|
7,6,2.8|
7,7,8|
];
constraint_x6_x5=[
0,0,9.4|
0,1,9.1|
0,2,0.81|
0,3,1.4|
0,4,1.8|
0,5,7.2|
0,6,5.6|
0,7,7.5|
1,0,6.7|
1,1,8.4|
1,2,4.7|
1,3,9.3|
1,4,1.6|
1,5,9.3|
1,6,4.7|
1,7,3.6|
2,0,4|
2,1,8.2|
2,2,7.3|
2,3,2.7|
2,4,5|
2,5,7.5|
2,6,9.4|
2,7,4.9|
3,0,6.1|
3,1,5|
3,2,7.6|
3,3,3|
3,4,2|
3,5,8.1|
3,6,4.1|
3,7,3.6|
4,0,6.2|
4,1,1.8|
4,2,6.8|
4,3,9.4|
4,4,3.6|
4,5,9.1|
4,6,1.5|
4,7,8.8|
5,0,0.95|
5,1,9.2|
5,2,4.7|
5,3,7|
5,4,5.3|
5,5,0.5|
5,6,1.2|
5,7,5.7|
6,0,4.2|
6,1,2.8|
6,2,0.97|
6,3,0.32|
6,4,2.2|
6,5,4.1|
6,6,8.5|
6,7,1.8|
7,0,5.4|
7,1,1.8|
7,2,8.3|
7,3,3.1|
7,4,9.1|
7,5,9.1|
7,6,5.1|
7,7,0.85|
];
constraint_x7_x3=[
0,0,4.3|
0,1,3.6|
0,2,6.2|
0,3,6.3|
0,4,4.5|
0,5,0.92|
0,6,1.1|
0,7,6.1|
1,0,3.1|
1,1,2.5|
1,2,9.1|
1,3,2.1|
1,4,8|
1,5,9.7|
1,6,8.3|
1,7,8|
2,0,2.4|
2,1,2.6|
2,2,9.5|
2,3,1.2|
2,4,0.66|
2,5,1.5|
2,6,5.4|
2,7,4.8|
3,0,5|
3,1,5.3|
3,2,9.1|
3,3,8.5|
3,4,5.4|
3,5,3.2|
3,6,7.5|
3,7,1.4|
4,0,3|
4,1,7.9|
4,2,1.2|
4,3,8.7|
4,4,5.9|
4,5,5.3|
4,6,2.5|
4,7,8.1|
5,0,3|
5,1,5.5|
5,2,9.1|
5,3,6.6|
5,4,0.9|
5,5,3.3|
5,6,7.8|
5,7,2.4|
6,0,0.42|
6,1,6.7|
6,2,2.7|
6,3,8.8|
6,4,1.3|
6,5,0.4|
6,6,9.3|
6,7,7.4|
7,0,7.3|
7,1,0.16|
7,2,4.2|
7,3,9.2|
7,4,3.5|
7,5,9.2|
7,6,6.1|
7,7,9.5|
];
constraint_x7_x6=[
0,0,0.055|
0,1,9.8|
0,2,5.9|
0,3,2.6|
0,4,7.6|
0,5,0.52|
0,6,1.6|
0,7,8.6|
1,0,0.73|
1,1,5.6|
1,2,1.1|
1,3,8.7|
1,4,1.6|
1,5,0.036|
1,6,2.3|
1,7,3.2|
2,0,8|
2,1,4.7|
2,2,3.9|
2,3,5.2|
2,4,4.2|
2,5,4.9|
2,6,5.1|
2,7,7.1|
3,0,0.15|
3,1,1.1|
3,2,4.8|
3,3,3.1|
3,4,8.5|
3,5,9.6|
3,6,3.5|
3,7,2.5|
4,0,1.9|
4,1,6.4|
4,2,3.1|
4,3,0.91|
4,4,9.9|
4,5,2.5|
4,6,8.1|
4,7,9.2|
5,0,5|
5,1,4.1|
5,2,9.2|
5,3,6.8|
5,4,5.3|
5,5,4.5|
5,6,5.7|
5,7,1.1|
6,0,4.6|
6,1,5.8|
6,2,1.9|
6,3,9.3|
6,4,6.6|
6,5,2.7|
6,6,9.6|
6,7,4.5|
7,0,8.7|
7,1,0.45|
7,2,2.3|
7,3,9.2|
7,4,1.2|
7,5,3.5|
7,6,0.66|
7,7,3.6|
];
constraint_x8_x4=[
0,0,4.4|
0,1,2.3|
0,2,3.8|
0,3,7.9|
0,4,0.65|
0,5,4.3|
0,6,8.8|
0,7,5.5|
1,0,5.4|
1,1,1.7|
1,2,8.9|
1,3,7|
1,4,5.6|
1,5,6.1|
1,6,2.1|
1,7,2.8|
2,0,3.4|
2,1,0.034|
2,2,6.4|
2,3,3.9|
2,4,5.3|
2,5,3.3|
2,6,1.9|
2,7,4.2|
3,0,2.9|
3,1,2.9|
3,2,7.6|
3,3,1.9|
3,4,9.8|
3,5,2.8|
3,6,4.5|
3,7,8.3|
4,0,6.6|
4,1,5.7|
4,2,7.9|
4,3,0.68|
4,4,2.6|
4,5,2.4|
4,6,5.4|
4,7,8.5|
5,0,9.7|
5,1,9.1|
5,2,8.9|
5,3,9.6|
5,4,1.5|
5,5,9.7|
5,6,9.5|
5,7,3.6|
6,0,4.4|
6,1,7.5|
6,2,0.46|
6,3,9.4|
6,4,10|
6,5,6.9|
6,6,5|
6,7,7.9|
7,0,2.9|
7,1,0.59|
7,2,6|
7,3,5.4|
7,4,5.7|
7,5,8.8|
7,6,4.3|
7,7,0.34|
];
constraint_x8_x7=[
0,0,7.3|
0,1,9.3|
0,2,5.6|
0,3,5.7|
0,4,9.6|
0,5,7.3|
0,6,9.6|
0,7,6.9|
1,0,1.6|
1,1,8.5|
1,2,6.9|
1,3,2.2|
1,4,5.1|
1,5,1|
1,6,6.9|
1,7,5.7|
2,0,0.078|
2,1,8.3|
2,2,6.7|
2,3,9.7|
2,4,4|
2,5,7.5|
2,6,3.6|
2,7,7.6|
3,0,0.85|
3,1,7.9|
3,2,9.7|
3,3,4.3|
3,4,8|
3,5,3|
3,6,1|
3,7,2|
4,0,9.6|
4,1,8.8|
4,2,8.4|
4,3,6.6|
4,4,2.7|
4,5,1.4|
4,6,4.7|
4,7,3.6|
5,0,4.6|
5,1,4.9|
5,2,3.9|
5,3,1.3|
5,4,3.5|
5,5,6.4|
5,6,7.1|
5,7,2.5|
6,0,6.4|
6,1,3.2|
6,2,3.5|
6,3,4.7|
6,4,4.1|
6,5,8|
6,6,8.9|
6,7,5.5|
7,0,3.8|
7,1,0.38|
7,2,4.3|
7,3,7.8|
7,4,8.2|
7,5,0.85|
7,6,6.2|
7,7,7.9|
];
constraint_x9_x5=[
0,0,5.5|
0,1,8.1|
0,2,5|
0,3,3.5|
0,4,1.3|
0,5,1.6|
0,6,8.5|
0,7,5.3|
1,0,3.4|
1,1,2.3|
1,2,9.1|
1,3,3.2|
1,4,1.6|
1,5,0.079|
1,6,3.4|
1,7,7.8|
2,0,0.26|
2,1,4.1|
2,2,5.8|
2,3,6.7|
2,4,2.6|
2,5,0.37|
2,6,5|
2,7,6.4|
3,0,9|
3,1,4|
3,2,1.9|
3,3,4.3|
3,4,7.3|
3,5,0.57|
3,6,6.3|
3,7,3.9|
4,0,6.4|
4,1,1.9|
4,2,0.49|
4,3,3.1|
4,4,0.66|
4,5,3.3|
4,6,2.6|
4,7,1.7|
5,0,5.6|
5,1,0.93|
5,2,0.27|
5,3,6.1|
5,4,5.6|
5,5,1.6|
5,6,5.8|
5,7,4.4|
6,0,0.57|
6,1,0.32|
6,2,8.1|
6,3,0.78|
6,4,8.7|
6,5,4.2|
6,6,0.44|
6,7,5.1|
7,0,9.5|
7,1,7.3|
7,2,6.4|
7,3,0.5|
7,4,8.5|
7,5,4.3|
7,6,5.5|
7,7,4.6|
];
constraint_x10_x6=[
0,0,4.5|
0,1,1.1|
0,2,3.6|
0,3,3.7|
0,4,9.9|
0,5,1.9|
0,6,6.2|
0,7,8.2|
1,0,3|
1,1,1.3|
1,2,6|
1,3,5|
1,4,0.77|
1,5,7.3|
1,6,9.7|
1,7,7.9|
2,0,1.1|
2,1,5.2|
2,2,4.4|
2,3,1.2|
2,4,9.5|
2,5,4.3|
2,6,7.1|
2,7,1.5|
3,0,8.5|
3,1,2.8|
3,2,0.64|
3,3,7.9|
3,4,4.9|
3,5,4.3|
3,6,1.9|
3,7,4.9|
4,0,0.88|
4,1,3.3|
4,2,3.8|
4,3,9.4|
4,4,8.9|
4,5,6.4|
4,6,8.2|
4,7,6.8|
5,0,7.3|
5,1,7.7|
5,2,6.8|
5,3,0.49|
5,4,7.6|
5,5,5.6|
5,6,0.22|
5,7,1.2|
6,0,6.7|
6,1,10|
6,2,1.5|
6,3,8.4|
6,4,7.6|
6,5,5.3|
6,6,1.4|
6,7,9.4|
7,0,0.82|
7,1,2.3|
7,2,1.9|
7,3,5.7|
7,4,7|
7,5,5.7|
7,6,2.5|
7,7,6|
];
constraint_x10_x9=[
0,0,9.6|
0,1,3.3|
0,2,3.5|
0,3,0.073|
0,4,3.3|
0,5,4.2|
0,6,6.5|
0,7,6.5|
1,0,0.57|
1,1,8.5|
1,2,5.5|
1,3,6.9|
1,4,5.2|
1,5,2.7|
1,6,4.5|
1,7,7.3|
2,0,9.6|
2,1,6.7|
2,2,0.48|
2,3,7.4|
2,4,6.3|
2,5,9.9|
2,6,9.6|
2,7,2.2|
3,0,3.4|
3,1,2.2|
3,2,0.27|
3,3,4|
3,4,6.5|
3,5,3.6|
3,6,0.66|
3,7,4.4|
4,0,4.1|
4,1,1.6|
4,2,7.7|
4,3,9.4|
4,4,9.9|
4,5,7|
4,6,9.9|
4,7,9.6|
5,0,2|
5,1,9|
5,2,0.4|
5,3,7.2|
5,4,5.6|
5,5,1.7|
5,6,2|
5,7,1.9|
6,0,9.5|
6,1,7.9|
6,2,4.4|
6,3,6.8|
6,4,4.7|
6,5,5|
6,6,8.4|
6,7,5.2|
7,0,6.6|
7,1,4.9|
7,2,1.9|
7,3,6.5|
7,4,7.3|
7,5,2.6|
7,6,6.7|
7,7,8.1|
];
constraint_x11_x7=[
0,0,0.025|
0,1,5.5|
0,2,8.1|
0,3,2.6|
0,4,9.5|
0,5,8.7|
0,6,1.8|
0,7,5.1|
1,0,2.9|
1,1,8.9|
1,2,9|
1,3,7.5|
1,4,4.4|
1,5,7.2|
1,6,0.6|
1,7,9.4|
2,0,9.6|
2,1,9.6|
2,2,0.31|
2,3,2.6|
2,4,6.4|
2,5,7.7|
2,6,9.9|
2,7,8|
3,0,7.9|
3,1,0.89|
3,2,1.4|
3,3,9.9|
3,4,9.4|
3,5,4.4|
3,6,2.7|
3,7,6.6|
4,0,7.8|
4,1,9.4|
4,2,1.3|
4,3,6.5|
4,4,9.6|
4,5,1.5|
4,6,4.3|
4,7,3.8|
5,0,4.2|
5,1,2|
5,2,6.5|
5,3,5.1|
5,4,7.6|
5,5,6.1|
5,6,2.7|
5,7,7.8|
6,0,6.3|
6,1,7.3|
6,2,9.3|
6,3,5.6|
6,4,7.2|
6,5,7.9|
6,6,5.6|
6,7,8.6|
7,0,7.3|
7,1,4|
7,2,4.9|
7,3,8.1|
7,4,3.9|
7,5,7.6|
7,6,2.7|
7,7,6.6|
];
constraint_x11_x10=[
0,0,3|
0,1,9.3|
0,2,2.5|
0,3,2.2|
0,4,1|
0,5,3.7|
0,6,5.1|
0,7,6.2|
1,0,6.3|
1,1,6.3|
1,2,0.64|
1,3,0.5|
1,4,3.5|
1,5,6.2|
1,6,5.7|
1,7,1.3|
2,0,6.5|
2,1,9.3|
2,2,8.5|
2,3,1.8|
2,4,0.97|
2,5,3.4|
2,6,3.8|
2,7,2.8|
3,0,9.8|
3,1,2.3|
3,2,0.86|
3,3,0.22|
3,4,1.1|
3,5,5.8|
3,6,3.2|
3,7,10|
4,0,6.1|
4,1,4.8|
4,2,6.4|
4,3,8.7|
4,4,5.5|
4,5,5.4|
4,6,2|
4,7,5.7|
5,0,1|
5,1,0.88|
5,2,3.5|
5,3,8.5|
5,4,4.5|
5,5,1.8|
5,6,4.9|
5,7,2.4|
6,0,0.89|
6,1,5|
6,2,5|
6,3,6.9|
6,4,6.6|
6,5,9.2|
6,6,4.8|
6,7,6|
7,0,2.8|
7,1,5|
7,2,1|
7,3,4.7|
7,4,2.9|
7,5,6|
7,6,9|
7,7,5.9|
];
constraint_x12_x8=[
0,0,6.4|
0,1,6.2|
0,2,2.8|
0,3,1.8|
0,4,9.6|
0,5,2.9|
0,6,0.86|
0,7,4.6|
1,0,7.7|
1,1,1.6|
1,2,5.3|
1,3,6.1|
1,4,10|
1,5,6.2|
1,6,2|
1,7,3.9|
2,0,0.33|
2,1,1.3|
2,2,2.4|
2,3,2.7|
2,4,9.9|
2,5,1.7|
2,6,3|
2,7,6.8|
3,0,8.1|
3,1,0.91|
3,2,5.1|
3,3,9.9|
3,4,4.6|
3,5,8.8|
3,6,3.2|
3,7,0.56|
4,0,7.2|
4,1,2.2|
4,2,9.5|
4,3,5.6|
4,4,2.6|
4,5,4.3|
4,6,2.9|
4,7,8.7|
5,0,4.9|
5,1,7.1|
5,2,2.4|
5,3,3.9|
5,4,4.8|
5,5,7.6|
5,6,2.9|
5,7,6.4|
6,0,2.3|
6,1,4.4|
6,2,2.1|
6,3,5.3|
6,4,0.39|
6,5,2.7|
6,6,5.9|
6,7,7.4|
7,0,7.1|
7,1,7.3|
7,2,9.9|
7,3,7.9|
7,4,0.66|
7,5,1|
7,6,2.7|
7,7,0.43|
];
constraint_x12_x11=[
0,0,0.8|
0,1,4.5|
0,2,4.4|
0,3,0.27|
0,4,5.1|
0,5,6.3|
0,6,0.78|
0,7,6.1|
1,0,4.9|
1,1,9.6|
1,2,0.76|
1,3,3.2|
1,4,7.6|
1,5,4.5|
1,6,5.9|
1,7,6.8|
2,0,0.89|
2,1,3.1|
2,2,6.3|
2,3,2.6|
2,4,9.3|
2,5,4.2|
2,6,6.6|
2,7,0.003|
3,0,1.3|
3,1,9.5|
3,2,6.6|
3,3,8.1|
3,4,6.4|
3,5,4.9|
3,6,8.4|
3,7,6.4|
4,0,2.8|
4,1,8.5|
4,2,3.5|
4,3,2.8|
4,4,5.1|
4,5,4.3|
4,6,3.3|
4,7,2.7|
5,0,7.6|
5,1,2.2|
5,2,1.4|
5,3,6.1|
5,4,7.4|
5,5,9.4|
5,6,8.6|
5,7,9.8|
6,0,0.84|
6,1,7|
6,2,2|
6,3,6|
6,4,7.4|
6,5,1.3|
6,6,6.8|
6,7,6|
7,0,2.8|
7,1,4|
7,2,2.4|
7,3,5.9|
7,4,4.2|
7,5,9.9|
7,6,0.13|
7,7,7.5|
];
constraint_x13_x9=[
0,0,6.8|
0,1,9.1|
0,2,9.2|
0,3,6|
0,4,7.1|
0,5,2.1|
0,6,9.5|
0,7,0.61|
1,0,9.1|
1,1,1.5|
1,2,2.6|
1,3,9.1|
1,4,9.4|
1,5,1.4|
1,6,6.3|
1,7,3.8|
2,0,1.1|
2,1,5.2|
2,2,3.8|
2,3,6.3|
2,4,7.8|
2,5,5.8|
2,6,7.8|
2,7,0.3|
3,0,1.4|
3,1,7.1|
3,2,0.57|
3,3,9.9|
3,4,4.3|
3,5,6.3|
3,6,4.4|
3,7,6.8|
4,0,3.8|
4,1,8.5|
4,2,8.6|
4,3,9.4|
4,4,6.6|
4,5,9.1|
4,6,2.5|
4,7,4.4|
5,0,4.1|
5,1,0.75|
5,2,4.6|
5,3,9|
5,4,4.3|
5,5,3|
5,6,9.1|
5,7,1.8|
6,0,0.3|
6,1,6.6|
6,2,8.4|
6,3,9.8|
6,4,1.8|
6,5,9.4|
6,6,2.5|
6,7,6.7|
7,0,8.7|
7,1,3.5|
7,2,9|
7,3,7|
7,4,3.5|
7,5,8.1|
7,6,8.3|
7,7,1.2|
];
constraint_x14_x10=[
0,0,5.1|
0,1,1.4|
0,2,9.2|
0,3,8|
0,4,3.6|
0,5,9.7|
0,6,2.1|
0,7,3.7|
1,0,0.3|
1,1,5.8|
1,2,6.2|
1,3,3.3|
1,4,7.6|
1,5,4|
1,6,2.4|
1,7,7.7|
2,0,7.1|
2,1,7.8|
2,2,5.7|
2,3,3.2|
2,4,2.1|
2,5,4.5|
2,6,4.6|
2,7,6.5|
3,0,2.4|
3,1,7.7|
3,2,2.3|
3,3,6.6|
3,4,7.4|
3,5,9.7|
3,6,6.3|
3,7,7.9|
4,0,4.5|
4,1,9.5|
4,2,4.2|
4,3,3.7|
4,4,9|
4,5,4.7|
4,6,1.8|
4,7,8.1|
5,0,2.3|
5,1,4.9|
5,2,2|
5,3,0.95|
5,4,3.3|
5,5,8.2|
5,6,7|
5,7,5.7|
6,0,1|
6,1,8.5|
6,2,4.2|
6,3,7.8|
6,4,4.5|
6,5,7.6|
6,6,3.2|
6,7,1.4|
7,0,2.1|
7,1,0.2|
7,2,3.5|
7,3,3.3|
7,4,2.7|
7,5,3.7|
7,6,9.2|
7,7,3.4|
];
constraint_x15_x11=[
0,0,7.8|
0,1,1.7|
0,2,4.3|
0,3,4.8|
0,4,6.2|
0,5,8.8|
0,6,8|
0,7,7|
1,0,5.7|
1,1,1.6|
1,2,9.5|
1,3,4.5|
1,4,8.3|
1,5,7.1|
1,6,7.8|
1,7,0.32|
2,0,5.4|
2,1,3.7|
2,2,3.5|
2,3,3.8|
2,4,6.3|
2,5,0.61|
2,6,0.11|
2,7,0.45|
3,0,7.6|
3,1,6|
3,2,4.9|
3,3,0.73|
3,4,9.3|
3,5,6.7|
3,6,1|
3,7,2.6|
4,0,1.5|
4,1,0.095|
4,2,5|
4,3,8.6|
4,4,7.4|
4,5,6.4|
4,6,0.092|
4,7,8.7|
5,0,8.4|
5,1,5.4|
5,2,2.1|
5,3,7.7|
5,4,1.3|
5,5,4.5|
5,6,5.1|
5,7,7.4|
6,0,2.9|
6,1,6|
6,2,5.7|
6,3,6.2|
6,4,3.1|
6,5,8.3|
6,6,6.8|
6,7,8.8|
7,0,1.6|
7,1,4.6|
7,2,2|
7,3,7.2|
7,4,1.2|
7,5,1.4|
7,6,5.9|
7,7,5.2|
];
constraint_x16_x12=[
0,0,9.1|
0,1,8.3|
0,2,4.6|
0,3,3.9|
0,4,4|
0,5,3.4|
0,6,2.8|
0,7,9.9|
1,0,4.5|
1,1,3.1|
1,2,7.8|
1,3,3.2|
1,4,3.6|
1,5,3.2|
1,6,4|
1,7,5.8|
2,0,9.9|
2,1,4.9|
2,2,3.4|
2,3,4.7|
2,4,2.4|
2,5,2.4|
2,6,9.1|
2,7,0.68|
3,0,2.4|
3,1,0.86|
3,2,5.4|
3,3,4.6|
3,4,4|
3,5,8.9|
3,6,9.1|
3,7,1.5|
4,0,7.6|
4,1,2.1|
4,2,4.1|
4,3,7.7|
4,4,1.9|
4,5,8.2|
4,6,2.3|
4,7,5.7|
5,0,5.7|
5,1,1.8|
5,2,1.3|
5,3,0.91|
5,4,4|
5,5,6.6|
5,6,8.9|
5,7,4.1|
6,0,8.9|
6,1,3.4|
6,2,6.5|
6,3,2.9|
6,4,6.9|
6,5,0.7|
6,6,8.8|
6,7,4|
7,0,4.3|
7,1,7.1|
7,2,1.1|
7,3,9.5|
7,4,1.1|
7,5,4.5|
7,6,4.3|
7,7,8.5|
];
constraint_x17_x13=[
0,0,8.6|
0,1,9.2|
0,2,8.6|
0,3,9|
0,4,8.5|
0,5,0.024|
0,6,0.2|
0,7,4.9|
1,0,0.54|
1,1,0.56|
1,2,7.6|
1,3,1.9|
1,4,3.9|
1,5,2|
1,6,2|
1,7,8.5|
2,0,7.9|
2,1,2.8|
2,2,0.4|
2,3,1.2|
2,4,2.9|
2,5,0.8|
2,6,2.2|
2,7,3.9|
3,0,6|
3,1,9|
3,2,8.5|
3,3,3.1|
3,4,7.3|
3,5,3.1|
3,6,5.6|
3,7,3.3|
4,0,4.8|
4,1,8.6|
4,2,3.7|
4,3,4.8|
4,4,0.0018|
4,5,2.3|
4,6,5|
4,7,9.9|
5,0,7.2|
5,1,0.85|
5,2,5.6|
5,3,0.74|
5,4,9.2|
5,5,9.2|
5,6,6.9|
5,7,7.3|
6,0,3.3|
6,1,0.21|
6,2,3.3|
6,3,9.9|
6,4,8.9|
6,5,9.9|
6,6,0.61|
6,7,1.4|
7,0,9.4|
7,1,1|
7,2,1.6|
7,3,2.6|
7,4,0.41|
7,5,9.9|
7,6,0.018|
7,7,9.5|
];
constraint_x18_x14=[
0,0,1.6|
0,1,0.15|
0,2,7.2|
0,3,7.9|
0,4,7.4|
0,5,3.8|
0,6,8.6|
0,7,9.8|
1,0,7.7|
1,1,7.2|
1,2,6.4|
1,3,3.2|
1,4,1.5|
1,5,9.9|
1,6,4.4|
1,7,8.6|
2,0,7.8|
2,1,3.6|
2,2,4|
2,3,1.5|
2,4,3|
2,5,9.4|
2,6,7.6|
2,7,8.3|
3,0,9.8|
3,1,7.4|
3,2,0.019|
3,3,3.5|
3,4,9.1|
3,5,1.2|
3,6,3.7|
3,7,6.3|
4,0,6.9|
4,1,8|
4,2,3.9|
4,3,4.3|
4,4,5.4|
4,5,5.9|
4,6,6.2|
4,7,2.1|
5,0,2.5|
5,1,9.4|
5,2,7|
5,3,8.7|
5,4,0.11|
5,5,6|
5,6,5.6|
5,7,7.1|
6,0,1.7|
6,1,4.5|
6,2,4.5|
6,3,1.7|
6,4,6.4|
6,5,3.7|
6,6,7.6|
6,7,8.2|
7,0,0.68|
7,1,6.4|
7,2,8.4|
7,3,4.5|
7,4,4.6|
7,5,8.9|
7,6,3.4|
7,7,8.8|
];
constraint_x19_x15=[
0,0,3|
0,1,7.5|
0,2,5.4|
0,3,9.4|
0,4,5.2|
0,5,8|
0,6,4|
0,7,6.9|
1,0,0.63|
1,1,1|
1,2,5.7|
1,3,1.1|
1,4,1.4|
1,5,10|
1,6,7.9|
1,7,8.4|
2,0,7.6|
2,1,7.8|
2,2,8.8|
2,3,6|
2,4,9.3|
2,5,1.4|
2,6,3|
2,7,2.7|
3,0,4.1|
3,1,3.4|
3,2,3.3|
3,3,6.9|
3,4,7.7|
3,5,4|
3,6,3.4|
3,7,8.4|
4,0,6.6|
4,1,7.1|
4,2,5.6|
4,3,8.6|
4,4,7.6|
4,5,0.51|
4,6,2.9|
4,7,2.3|
5,0,6.8|
5,1,6.1|
5,2,0.87|
5,3,0.23|
5,4,6.4|
5,5,4.3|
5,6,0.022|
5,7,7|
6,0,7|
6,1,9.5|
6,2,8.7|
6,3,4.1|
6,4,5.9|
6,5,0.61|
6,6,8.8|
6,7,4.8|
7,0,9|
7,1,8.1|
7,2,6.7|
7,3,1|
7,4,4|
7,5,0.012|
7,6,2.9|
7,7,7.9|
];
constraint_x20_x16=[
0,0,9.5|
0,1,0.21|
0,2,7.7|
0,3,4.7|
0,4,9.5|
0,5,9.1|
0,6,2.3|
0,7,7.2|
1,0,2.1|
1,1,7|
1,2,8.1|
1,3,5|
1,4,9.3|
1,5,3.1|
1,6,5.5|
1,7,2|
2,0,5.3|
2,1,5.7|
2,2,3.4|
2,3,8.7|
2,4,4.8|
2,5,7.6|
2,6,9|
2,7,0.78|
3,0,3.6|
3,1,3.4|
3,2,9.4|
3,3,4.5|
3,4,2.9|
3,5,2.4|
3,6,4.7|
3,7,2.9|
4,0,3.4|
4,1,5.2|
4,2,5.6|
4,3,5.6|
4,4,4.1|
4,5,9|
4,6,0.18|
4,7,8.4|
5,0,9.6|
5,1,7.2|
5,2,8.4|
5,3,4.5|
5,4,4.3|
5,5,5.3|
5,6,6|
5,7,1.5|
6,0,3.7|
6,1,2.1|
6,2,0.034|
6,3,1.7|
6,4,1|
6,5,8.8|
6,6,2.8|
6,7,0.053|
7,0,6.2|
7,1,8|
7,2,2.8|
7,3,0.9|
7,4,0.58|
7,5,6.2|
7,6,1.4|
7,7,2.4|
];
constraint_x1_y1=[
0,0,3.1|
0,1,9.8|
0,2,8.2|
0,3,7.7|
0,4,9.8|
0,5,3.5|
0,6,4.6|
0,7,3.4|
1,0,3.2|
1,1,4|
1,2,7|
1,3,7.3|
1,4,2.5|
1,5,2.2|
1,6,4.8|
1,7,8.6|
2,0,9.3|
2,1,4.4|
2,2,0.98|
2,3,7.3|
2,4,6.7|
2,5,0.28|
2,6,8.1|
2,7,1.7|
3,0,3.9|
3,1,2.3|
3,2,5.5|
3,3,3.7|
3,4,6.8|
3,5,6.5|
3,6,1.4|
3,7,0.6|
4,0,4.7|
4,1,5.6|
4,2,4.5|
4,3,0.45|
4,4,3.6|
4,5,8|
4,6,3.6|
4,7,6.7|
5,0,5.8|
5,1,2.9|
5,2,5.3|
5,3,2.8|
5,4,9.5|
5,5,8.6|
5,6,2.1|
5,7,1.8|
6,0,9.5|
6,1,6|
6,2,9|
6,3,3.2|
6,4,0.34|
6,5,0.56|
6,6,9.9|
6,7,7.9|
7,0,8.4|
7,1,8.3|
7,2,7.7|
7,3,7.2|
7,4,4.1|
7,5,8.9|
7,6,8.9|
7,7,3.5|
];
constraint_x2_y2=[
0,0,2.2|
0,1,6.3|
0,2,4.5|
0,3,0.17|
0,4,1.8|
0,5,3.1|
0,6,2.7|
0,7,9|
1,0,6.5|
1,1,3.8|
1,2,6.5|
1,3,2.8|
1,4,7.6|
1,5,2.9|
1,6,2.9|
1,7,4.1|
2,0,9.1|
2,1,1.2|
2,2,6.7|
2,3,7.1|
2,4,4.2|
2,5,3.4|
2,6,8.6|
2,7,0.91|
3,0,4.4|
3,1,0.14|
3,2,6|
3,3,7.5|
3,4,1.7|
3,5,2.9|
3,6,2.9|
3,7,9.1|
4,0,8.3|
4,1,3.3|
4,2,4.6|
4,3,4.7|
4,4,5.5|
4,5,0.43|
4,6,7.9|
4,7,5.5|
5,0,6|
5,1,7.8|
5,2,4.2|
5,3,4.9|
5,4,0.71|
5,5,7.2|
5,6,0.79|
5,7,7.8|
6,0,9.9|
6,1,9.9|
6,2,1.5|
6,3,4.8|
6,4,5.8|
6,5,2|
6,6,8.2|
6,7,2.3|
7,0,2.9|
7,1,3|
7,2,4|
7,3,2.2|
7,4,8.1|
7,5,3.1|
7,6,9.5|
7,7,10|
];
constraint_x3_y3=[
0,0,3.5|
0,1,8.9|
0,2,6.5|
0,3,6.6|
0,4,9.1|
0,5,6.8|
0,6,2.4|
0,7,1.3|
1,0,7|
1,1,8.8|
1,2,0.8|
1,3,7.2|
1,4,5.1|
1,5,4.6|
1,6,5.8|
1,7,0.86|
2,0,8.2|
2,1,9.4|
2,2,4.7|
2,3,3.6|
2,4,7.1|
2,5,0.89|
2,6,7.4|
2,7,1.9|
3,0,1.7|
3,1,7|
3,2,9.6|
3,3,4.6|
3,4,3.5|
3,5,9.9|
3,6,7.3|
3,7,5.2|
4,0,1.9|
4,1,5|
4,2,0.43|
4,3,3.7|
4,4,9.2|
4,5,1.2|
4,6,8.8|
4,7,6.2|
5,0,0.91|
5,1,6.4|
5,2,1.4|
5,3,8.4|
5,4,7.3|
5,5,0.29|
5,6,7.2|
5,7,4.8|
6,0,1.7|
6,1,1.2|
6,2,0.47|
6,3,0.097|
6,4,5.3|
6,5,0.56|
6,6,6.4|
6,7,8.1|
7,0,9.7|
7,1,9.1|
7,2,7.2|
7,3,7.4|
7,4,6.3|
7,5,6.4|
7,6,2|
7,7,2|
];
constraint_x4_y4=[
0,0,4.7|
0,1,0.89|
0,2,9.7|
0,3,2.8|
0,4,7.4|
0,5,7|
0,6,5.6|
0,7,0.86|
1,0,5.2|
1,1,1.4|
1,2,9.9|
1,3,3.6|
1,4,4.6|
1,5,0.0081|
1,6,4.9|
1,7,5.6|
2,0,9.9|
2,1,0.94|
2,2,0.19|
2,3,1.6|
2,4,3.5|
2,5,6.7|
2,6,5.5|
2,7,7.7|
3,0,6.3|
3,1,6.3|
3,2,1.7|
3,3,3.3|
3,4,9.4|
3,5,6.9|
3,6,7.9|
3,7,5.9|
4,0,0.12|
4,1,7.1|
4,2,7.3|
4,3,1.8|
4,4,4.6|
4,5,3.5|
4,6,3.5|
4,7,2.5|
5,0,3.6|
5,1,3.9|
5,2,5.3|
5,3,8.4|
5,4,2.4|
5,5,6.6|
5,6,1.8|
5,7,2.7|
6,0,3.9|
6,1,5.7|
6,2,0.11|
6,3,5.2|
6,4,5.1|
6,5,4.5|
6,6,2.9|
6,7,0.22|
7,0,1.5|
7,1,1.2|
7,2,4.9|
7,3,6.5|
7,4,4.4|
7,5,4.4|
7,6,6.6|
7,7,6.6|
];
constraint_x5_y5=[
0,0,9.2|
0,1,6.8|
0,2,3.3|
0,3,3.3|
0,4,7.6|
0,5,2.4|
0,6,8.3|
0,7,9.2|
1,0,9.4|
1,1,2.9|
1,2,4|
1,3,7.7|
1,4,2.6|
1,5,6.9|
1,6,1.5|
1,7,7.6|
2,0,3.2|
2,1,1.1|
2,2,7.3|
2,3,5.5|
2,4,9.9|
2,5,3.4|
2,6,6.8|
2,7,5|
3,0,6.3|
3,1,0.27|
3,2,6.5|
3,3,1.9|
3,4,5.8|
3,5,3.6|
3,6,6.7|
3,7,2.2|
4,0,7.3|
4,1,4.9|
4,2,9.4|
4,3,9.7|
4,4,2.2|
4,5,1.3|
4,6,5.6|
4,7,5|
5,0,8.2|
5,1,9.1|
5,2,7.2|
5,3,0.1|
5,4,7.3|
5,5,7.3|
5,6,4.4|
5,7,8.7|
6,0,7.4|
6,1,3.5|
6,2,2.7|
6,3,5.9|
6,4,0.089|
6,5,4.2|
6,6,1.5|
6,7,9.7|
7,0,3.6|
7,1,4.8|
7,2,1.6|
7,3,9.4|
7,4,7.5|
7,5,9.4|
7,6,1.9|
7,7,1.7|
];
constraint_x6_y6=[
0,0,5.9|
0,1,8.1|
0,2,3.9|
0,3,0.78|
0,4,0.79|
0,5,7.6|
0,6,4.5|
0,7,3.4|
1,0,6.5|
1,1,5.1|
1,2,2|
1,3,7.3|
1,4,8.1|
1,5,9.3|
1,6,6.3|
1,7,3.8|
2,0,0.19|
2,1,9.1|
2,2,3.1|
2,3,0.29|
2,4,2.3|
2,5,4.4|
2,6,9.3|
2,7,9.4|
3,0,3.6|
3,1,3.7|
3,2,8.1|
3,3,7.6|
3,4,5|
3,5,3.3|
3,6,9.5|
3,7,2.4|
4,0,6.9|
4,1,8.6|
4,2,0.67|
4,3,3.2|
4,4,2.8|
4,5,8.8|
4,6,3.8|
4,7,6.1|
5,0,4.8|
5,1,0.57|
5,2,3|
5,3,6.1|
5,4,9.4|
5,5,3.8|
5,6,3.1|
5,7,3.7|
6,0,1.2|
6,1,7.2|
6,2,3.6|
6,3,7|
6,4,6.8|
6,5,9.1|
6,6,2.1|
6,7,6.1|
7,0,9.6|
7,1,9.8|
7,2,2.5|
7,3,7|
7,4,6|
7,5,3.9|
7,6,0.92|
7,7,1.7|
];
constraint_x7_y7=[
0,0,9.2|
0,1,4.9|
0,2,2.6|
0,3,0.77|
0,4,0.26|
0,5,8.8|
0,6,6.9|
0,7,2.3|
1,0,6.1|
1,1,8.4|
1,2,2.4|
1,3,9.4|
1,4,6.3|
1,5,2.8|
1,6,9.9|
1,7,8.9|
2,0,2.4|
2,1,5.5|
2,2,5.1|
2,3,7.8|
2,4,8.5|
2,5,2.8|
2,6,1.1|
2,7,5.3|
3,0,4.9|
3,1,7.3|
3,2,3.1|
3,3,3.8|
3,4,2.9|
3,5,6.3|
3,6,7.3|
3,7,5.4|
4,0,7.8|
4,1,3.3|
4,2,7.1|
4,3,5.5|
4,4,0.31|
4,5,7.5|
4,6,5.2|
4,7,5.3|
5,0,0.12|
5,1,3.7|
5,2,6.3|
5,3,4.4|
5,4,3.4|
5,5,5|
5,6,9.5|
5,7,1.9|
6,0,2|
6,1,9.7|
6,2,7.6|
6,3,3.7|
6,4,2.7|
6,5,9.5|
6,6,1.5|
6,7,5.5|
7,0,5.6|
7,1,8.3|
7,2,6.6|
7,3,2.9|
7,4,7.1|
7,5,2.6|
7,6,0.93|
7,7,4.9|
];
constraint_x8_y8=[
0,0,1.2|
0,1,5.4|
0,2,7|
0,3,0.021|
0,4,9.5|
0,5,1.4|
0,6,1.8|
0,7,5.2|
1,0,5.3|
1,1,3.9|
1,2,4.7|
1,3,4.8|
1,4,0.33|
1,5,4.8|
1,6,9.4|
1,7,2.6|
2,0,8.3|
2,1,2.7|
2,2,1.4|
2,3,3|
2,4,9.8|
2,5,9.5|
2,6,6.5|
2,7,7.5|
3,0,0.39|
3,1,9.7|
3,2,4.3|
3,3,7.4|
3,4,6.7|
3,5,2.2|
3,6,9.7|
3,7,3.5|
4,0,0.81|
4,1,9.4|
4,2,7.8|
4,3,7.1|
4,4,5|
4,5,5.8|
4,6,6.4|
4,7,1.6|
5,0,7.6|
5,1,0.43|
5,2,5.1|
5,3,2.6|
5,4,3.2|
5,5,4.7|
5,6,9.8|
5,7,6|
6,0,8.3|
6,1,4.7|
6,2,9.9|
6,3,5.2|
6,4,7.6|
6,5,2.3|
6,6,5|
6,7,2.9|
7,0,2.7|
7,1,9.6|
7,2,0.71|
7,3,2.7|
7,4,6|
7,5,5.8|
7,6,6.9|
7,7,0.66|
];
constraint_x9_y9=[
0,0,4.1|
0,1,5.4|
0,2,9.1|
0,3,4.5|
0,4,6.1|
0,5,9.9|
0,6,4.3|
0,7,1.9|
1,0,1|
1,1,3.5|
1,2,3.4|
1,3,0.24|
1,4,0.73|
1,5,1.2|
1,6,4.8|
1,7,0.015|
2,0,10|
2,1,2.8|
2,2,4|
2,3,2.5|
2,4,4|
2,5,8.4|
2,6,2.2|
2,7,1.6|
3,0,0.97|
3,1,8|
3,2,9.5|
3,3,5.7|
3,4,2|
3,5,1.1|
3,6,6|
3,7,9.3|
4,0,0.44|
4,1,8.2|
4,2,3|
4,3,1.1|
4,4,8.7|
4,5,7.3|
4,6,8.9|
4,7,4.1|
5,0,0.045|
5,1,1|
5,2,8.2|
5,3,0.11|
5,4,6.5|
5,5,8.9|
5,6,8.8|
5,7,5.2|
6,0,0.96|
6,1,9.2|
6,2,5.4|
6,3,1.2|
6,4,3.3|
6,5,4.1|
6,6,0.81|
6,7,7.8|
7,0,7.5|
7,1,4.3|
7,2,0.62|
7,3,6.7|
7,4,3.3|
7,5,4.8|
7,6,4|
7,7,4.8|
];
initial_distribution_y1=[0.022,0.082,0.033,0.22,0.064,0.25,0.14,0.19];
initial_distribution_y2=[0.12,0.18,0.14,0.18,0.14,0.083,0.14,0.022];
initial_distribution_y3=[0.11,0.13,0.051,0.24,0.075,0.1,0.22,0.078];
initial_distribution_y4=[0.13,0.18,0.13,0.12,0.059,0.026,0.18,0.17];
initial_distribution_y5=[0.029,0.063,0.029,0.19,0.3,0.11,0.03,0.24];
initial_distribution_y6=[0.22,0.057,0.054,0.22,0.11,0.059,0.068,0.2];
initial_distribution_y7=[0.14,0.17,0.12,0.18,0.13,0.092,0.07,0.097];
initial_distribution_y8=[0.058,0.11,0.13,0.053,0.19,0.15,0.16,0.15];
initial_distribution_y9=[0.17,0.19,0.057,0.16,0.15,0.11,0.11,0.054];
transition_y1=[
0.18,0.17,0.09,0.084,0.0041,0.22,0.19,0.067|
0.074,0.21,0.099,0.13,0.04,0.17,0.12,0.15|
0.16,0.14,0.2,0.062,0.043,0.15,0.16,0.084|
0.049,0.18,0.2,0.15,0.051,0.083,0.12,0.16|
0.17,0.049,0.22,0.12,0.097,0.12,0.075,0.15|
0.18,0.25,0.029,0.22,0.02,0.12,0.084,0.093|
0.099,0.19,0.09,0.18,0.15,0.095,0.18,0.018|
0.061,0.051,0.2,0.13,0.054,0.026,0.21,0.27|
];
transition_y2=[
0.082,0.2,0.079,0.14,0.098,0.17,0.071,0.17|
0.21,0.0069,0.19,0.16,0.21,0.13,0.06,0.036|
0.1,0.18,0.28,0.031,0.13,0.052,0.052,0.17|
0.0049,0.11,0.21,0.19,0.14,0.055,0.047,0.24|
0.18,0.17,0.11,0.069,0.15,0.13,0.038,0.15|
0.19,0.061,0.23,0.023,0.1,0.14,0.052,0.21|
0.23,0.21,0.058,0.023,0.078,0.22,0.1,0.076|
0.13,0.0056,0.16,0.1,0.21,0.1,0.15,0.15|
];
transition_y3=[
0.21,0.046,0.092,0.13,0.065,0.1,0.15,0.21|
0.18,0.15,0.018,0.19,0.031,0.08,0.15,0.21|
0.008,0.098,0.29,0.066,0.084,0.24,0.093,0.12|
0.18,0.095,0.18,0.2,0.03,0.2,0.0062,0.1|
0.14,0.21,0.12,0.12,0.066,0.073,0.21,0.054|
0.17,0.058,0.047,0.13,0.17,0.2,0.059,0.16|
0.17,0.11,0.19,0.2,0.11,0.072,0.14,0.0075|
0.17,0.1,0.13,0.075,0.037,0.16,0.16,0.17|
];
transition_y4=[
0.34,0.28,0.025,0.037,0.15,0.013,0.12,0.03|
0.052,0.041,0.061,0.23,0.19,0.1,0.2,0.12|
0.13,0.019,0.066,0.12,0.23,0.13,0.2,0.1|
0.026,0.14,0.017,0.073,0.083,0.18,0.3,0.18|
0.06,0.095,0.13,0.16,0.18,0.077,0.17,0.14|
0.2,0.07,0.0065,0.26,0.024,0.075,0.13,0.23|
0.18,0.15,0.16,0.022,0.28,0.068,0.11,0.025|
0.029,0.049,0.1,0.02,0.039,0.15,0.39,0.21|
];
transition_y5=[
0.14,0.15,0.23,0.067,0.06,0.0048,0.12,0.23|
0.16,0.11,0.16,0.023,0.13,0.14,0.11,0.17|
0.017,0.19,0.066,0.19,0.1,0.12,0.19,0.12|
0.21,0.11,0.17,0.04,0.043,0.14,0.21,0.087|
0.033,0.2,0.12,0.16,0.21,0.046,0.21,0.026|
0.1,0.077,0.092,0.22,0.17,0.21,0.08,0.046|
0.15,0.035,0.13,0.15,0.02,0.24,0.21,0.081|
0.048,0.19,0.24,0.18,0.041,0.048,0.1,0.15|
];
transition_y6=[
0.14,0.033,0.19,0.067,0.15,0.067,0.22,0.13|
0.13,0.069,0.016,0.077,0.23,0.21,0.095,0.17|
0.022,0.078,0.082,0.28,0.16,0.19,0.022,0.16|
0.059,0.19,0.21,0.21,0.16,0.048,0.015,0.12|
0.018,0.25,0.022,0.12,0.1,0.14,0.3,0.045|
0.08,0.12,0.19,0.12,0.05,0.16,0.091,0.19|
0.14,0.15,0.077,0.13,0.19,0.19,0.072,0.046|
0.22,0.061,0.088,0.22,0.017,0.24,0.13,0.024|
];
transition_y7=[
0.011,0.093,0.061,0.19,0.23,0.099,0.12,0.2|
0.048,0.21,0.14,0.077,0.16,0.09,0.067,0.21|
0.27,0.2,0.033,0.029,0.072,0.063,0.18,0.15|
0.035,0.17,0.071,0.19,0.13,0.16,0.051,0.19|
0.18,0.13,0.14,0.085,0.17,0.1,0.16,0.018|
0.1,0.19,0.12,0.096,0.11,0.12,0.17,0.085|
0.073,0.17,0.062,0.044,0.044,0.15,0.21,0.26|
0.19,0.15,0.11,0.19,0.068,0.13,0.034,0.14|
];
transition_y8=[
0.044,0.088,0.077,0.2,0.13,0.14,0.1,0.22|
0.18,0.2,0.14,0.065,0.14,0.071,0.077,0.12|
0.14,0.099,0.1,0.2,0.21,0.041,0.017,0.18|
0.15,0.16,0.064,0.12,0.056,0.15,0.18,0.12|
0.15,0.11,0.13,0.14,0.18,0.13,0.084,0.084|
0.18,0.12,0.076,0.21,0.068,0.12,0.11,0.13|
0.15,0.15,0.19,0.13,0.042,0.22,0.036,0.086|
0.12,0.2,0.2,0.15,0.0091,0.18,0.07,0.064|
];
transition_y9=[
0.1,0.095,0.25,0.28,0.14,0.024,0.0043,0.1|
0.14,0.2,0.11,0.2,0.077,0.11,0.091,0.07|
0.24,0.11,0.033,0.3,0.054,0.012,0.16,0.078|
0.14,0.19,0.076,0.13,0.2,0.15,0.064,0.058|
0.21,0.043,0.16,0.044,0.093,0.2,0.036,0.21|
0.026,0.27,0.13,0.21,0.21,0.02,0.12,0.014|
0.17,0.15,0.051,0.21,0.061,0.086,0.22,0.052|
0.16,0.16,0.11,0.13,0.098,0.05,0.13,0.16|
];
